p cnf 106 351
5 3 0
5 4 0
-3 -4 -5 0
6 2 0
6 -5 0
-2 5 -6 0
-1 -6 -7 0
1 6 -7 0
-1 6 7 0
1 -6 7 0
-10 9 0
-10 -5 0
-9 5 10 0
-8 -10 -11 0
8 10 -11 0
-8 10 11 0
8 -10 11 0
12 -8 -13 0
-12 8 -13 0
12 8 13 0
-12 -8 13 0
-15 -13 0
-15 -14 0
13 14 15 0
-16 11 0
-16 15 0
-11 -15 16 0
-18 9 0
-18 6 0
-9 -6 18 0
-19 -17 0
-19 18 0
17 -18 19 0
20 -19 0
20 -9 0
19 9 -20 0
-21 16 0
-21 20 0
-16 -20 21 0
23 -3 0
23 -22 0
3 22 -23 0
23 9 -24 0
-23 -9 -24 0
23 -9 24 0
-23 9 24 0
-25 -24 0
-25 -18 0
24 18 25 0
-18 25 -26 0
18 -25 -26 0
-18 -25 26 0
18 25 26 0
26 -18 -27 0
-26 18 -27 0
26 18 27 0
-26 -18 27 0
29 -27 0
29 28 0
27 -28 -29 0
-21 29 -30 0
21 -29 -30 0
-21 -29 30 0
21 29 30 0
-13 10 -31 0
13 -10 -31 0
-13 -10 31 0
13 10 31 0
32 19 0
32 -31 0
-19 31 -32 0
32 25 -33 0
-32 -25 -33 0
32 -25 33 0
-32 25 33 0
34 -14 -35 0
-34 14 -35 0
34 14 35 0
-34 -14 35 0
36 33 0
36 35 0
-33 -35 -36 0
-30 -36 -37 0
30 36 -37 0
-30 36 37 0
30 -36 37 0
7 -37 -38 0
-7 37 -38 0
7 37 38 0
-7 -37 38 0
39 3 0
39 14 0
-3 -14 -39 0
-41 -17 0
-41 40 0
17 -40 41 0
-42 -39 0
-42 -41 0
39 41 42 0
18 42 -43 0
-18 -42 -43 0
18 -42 43 0
-18 42 43 0
-22 -32 -44 0
22 32 -44 0
-22 32 44 0
22 -32 44 0
45 11 0
45 -1 0
-11 1 -45 0
46 -44 0
46 45 0
44 -45 -46 0
-43 -46 -47 0
43 46 -47 0
-43 46 47 0
43 -46 47 0
-48 5 0
-48 -22 0
-5 22 48 0
-49 1 0
-49 -48 0
-1 48 49 0
-50 -47 0
-50 -49 0
47 49 50 0
38 50 -51 0
-38 -50 -51 0
38 -50 51 0
-38 50 51 0
53 44 0
53 -52 0
-44 52 -53 0
-53 8 -54 0
53 -8 -54 0
-53 -8 54 0
53 8 54 0
-5 45 -55 0
5 -45 -55 0
-5 -45 55 0
5 45 55 0
-56 -54 0
-56 55 0
54 -55 56 0
51 56 -57 0
-51 -56 -57 0
51 -56 57 0
-51 56 57 0
-34 11 -58 0
34 -11 -58 0
-34 -11 58 0
34 11 58 0
-58 52 -59 0
58 -52 -59 0
-58 -52 59 0
58 52 59 0
-60 59 0
-60 -24 0
-59 24 60 0
-61 -26 0
-61 -8 0
26 8 61 0
6 3 -62 0
-6 -3 -62 0
6 -3 62 0
-6 3 62 0
-63 61 0
-63 62 0
-61 -62 63 0
-64 60 0
-64 -63 0
-60 63 64 0
65 17 0
65 4 0
-17 -4 -65 0
66 -64 0
66 -65 0
64 65 -66 0
57 -66 -67 0
-57 66 -67 0
57 66 67 0
-57 -66 67 0
69 4 0
69 -68 0
-4 68 -69 0
70 -39 0
70 42 0
39 -42 -70 0
-71 -69 0
-71 70 0
69 -70 71 0
-72 -18 -73 0
72 18 -73 0
-72 18 73 0
72 -18 73 0
-74 68 0
-74 -13 0
-68 13 74 0
75 73 0
75 74 0
-73 -74 -75 0
-2 6 -76 0
2 -6 -76 0
-2 -6 76 0
2 6 76 0
76 -19 -77 0
-76 19 -77 0
76 19 77 0
-76 -19 77 0
-78 -2 0
-78 4 0
2 -4 78 0
-79 78 0
-79 78 0
-78 79 0
-80 77 0
-80 79 0
-77 -79 80 0
-75 80 -81 0
75 -80 -81 0
-75 -80 81 0
75 80 81 0
-82 -71 0
-82 -81 0
71 81 82 0
83 -3 0
83 -18 0
3 18 -83 0
-11 10 -84 0
11 -10 -84 0
-11 -10 84 0
11 10 84 0
84 -85 0
-84 -85 0
-86 -9 0
-86 -2 0
9 2 86 0
87 -34 0
87 13 0
34 -13 -87 0
-88 87 0
-88 18 0
-87 -18 88 0
89 88 0
89 -45 0
-88 45 -89 0
-86 89 -90 0
86 -89 -90 0
-86 -89 90 0
86 89 90 0
91 40 0
91 -5 0
-40 5 -91 0
-92 -91 0
-92 74 0
91 -74 92 0
34 -87 -93 0
-34 87 -93 0
34 87 93 0
-34 -87 93 0
-32 25 -94 0
32 -25 -94 0
-32 -25 94 0
32 25 94 0
74 14 -95 0
-74 -14 -95 0
74 -14 95 0
-74 14 95 0
-96 -94 0
-96 -95 0
94 95 96 0
-97 93 0
-97 96 0
-93 -96 97 0
-98 92 0
-98 -97 0
-92 97 98 0
90 98 -99 0
-90 -98 -99 0
90 -98 99 0
-90 98 99 0
100 -85 0
100 99 0
85 -99 -100 0
-101 83 0
-101 100 0
-83 -100 101 0
102 -82 0
102 -101 0
82 101 -102 0
67 -102 -103 0
-67 102 -103 0
67 102 103 0
-67 -102 103 0
104 -3 0
104 -68 0
3 68 -104 0
105 104 0
105 -34 0
-104 34 -105 0
-103 105 -106 0
103 -105 -106 0
-103 -105 106 0
103 105 106 0
18 58 83 0
55 -62 57 0
42 -71 -6 -45 0
-81 50 5 0
95 -6 -51 -88 0
89 12 -18 0
-28 -4 0
-84 -88 -87 46 -80 0
-80 104 -6 0
17 -44 0
11 -43 3 42 -26 0
10 34 -74 0
41 65 -61 94 47 0
60 -80 0
-28 58 71 -20 19 0
66 73 53 15 -39 0
101 93 -41 -55 0
46 56 0
98 -62 99 50 68 86 0
53 10 103 27 0
-32 72 -53 57 0
-65 -4 0
83 15 -34 -5 -3 0
40 -59 49 47 0
-30 -77 0
56 66 -52 88 0
-10 102 -104 91 65 -95 0
-14 27 39 66 67 0
-12 104 76 -44 0
31 -86 0
35 -65 0
64 52 -17 -77 104 0
-36 -2 0
-89 -59 0
-94 40 -88 19 0
84 -88 76 66 45 89 0
8 -85 64 0
-12 -7 100 75 70 0
-74 -49 -55 -90 -50 82 0
-62 -54 -51 78 17 21 0
-47 44 -87 -54 0
-26 28 -106 -96 0
-37 -55 83 53 -98 28 0
34 -26 0
-77 54 -83 0
21 89 49 51 0
106 0
